Route 1: 0 95 68 21 38 20 9 19 25 73 3 84 79 0
Route 2: 0 44 6 82 15 86 66 40 74 77 14 0
Route 3: 0 97 10 35 76 47 75 56 63 39 45 0
Route 4: 0 71 67 85 30 16 29 59 28 0
Route 5: 0 49 33 27 55 32 17 94 42 0
Route 6: 0 69 99 12 41 81 92 58 43 26 91 70 0
Route 7: 0 72 83 64 80 61 37 100 54 0
Route 8: 0 1 23 46 57 52 22 5 48 0
Route 9: 0 90 98 13 7 4 65 34 88 2 60 36 0
Route 10: 0 24 78 62 93 31 11 8 87 0
Route 11: 0 96 50 18 53 89 51 0
